c Command line: hgen8 195 80
p cnf 195 304
121 70 126 166 0
156 130 94 53 0
108 9 123 170 0
60 4 55 65 0
48 132 155 20 0
139 59 58 85 0
12 28 193 162 0
160 131 32 114 0
102 52 81 66 0
115 191 92 100 0
1 142 190 146 0
133 140 90 124 0
25 172 149 120 0
75 50 39 62 0
79 42 99 173 0
117 21 161 73 0
194 192 44 152 0
3 158 109 49 0
137 141 96 34 0
135 89 150 82 0
33 148 97 107 0
138 46 178 157 0
18 145 182 101 0
51 154 179 67 0
189 159 134 111 0
116 61 129 41 0
14 40 16 153 0
27 69 23 163 0
6 68 57 63 0
151 35 19 76 0
169 110 13 7 0
119 188 43 103 0
84 93 45 143 0
165 112 144 11 0
122 86 30 71 0
17 38 175 186 0
187 136 127 2 0
180 176 168 80 0
98 47 128 83 0
74 29 106 26 0
-1 -2 0
-1 -3 0
-1 -4 0
-2 -3 0
-2 -4 0
-3 -4 0
-6 -7 0
-6 -9 0
-7 -9 0
-11 -12 0
-11 -13 0
-11 -14 0
-12 -13 0
-12 -14 0
-13 -14 0
-16 -17 0
-16 -18 0
-16 -19 0
-16 -20 0
-17 -18 0
-17 -19 0
-17 -20 0
-18 -19 0
-18 -20 0
-19 -20 0
-21 -23 0
-21 -25 0
-23 -25 0
-26 -27 0
-26 -28 0
-26 -29 0
-26 -30 0
-27 -28 0
-27 -29 0
-27 -30 0
-28 -29 0
-28 -30 0
-29 -30 0
-32 -33 0
-32 -34 0
-32 -35 0
-33 -34 0
-33 -35 0
-34 -35 0
-38 -39 0
-38 -40 0
-39 -40 0
-41 -42 0
-41 -43 0
-41 -44 0
-41 -45 0
-42 -43 0
-42 -44 0
-42 -45 0
-43 -44 0
-43 -45 0
-44 -45 0
-46 -47 0
-46 -48 0
-46 -49 0
-46 -50 0
-47 -48 0
-47 -49 0
-47 -50 0
-48 -49 0
-48 -50 0
-49 -50 0
-51 -52 0
-51 -53 0
-51 -55 0
-52 -53 0
-52 -55 0
-53 -55 0
-57 -58 0
-57 -59 0
-57 -60 0
-58 -59 0
-58 -60 0
-59 -60 0
-61 -62 0
-61 -63 0
-61 -65 0
-62 -63 0
-62 -65 0
-63 -65 0
-66 -67 0
-66 -68 0
-66 -69 0
-66 -70 0
-67 -68 0
-67 -69 0
-67 -70 0
-68 -69 0
-68 -70 0
-69 -70 0
-71 -73 0
-71 -74 0
-71 -75 0
-73 -74 0
-73 -75 0
-74 -75 0
-76 -79 0
-76 -80 0
-79 -80 0
-81 -82 0
-81 -83 0
-81 -84 0
-81 -85 0
-82 -83 0
-82 -84 0
-82 -85 0
-83 -84 0
-83 -85 0
-84 -85 0
-86 -89 0
-86 -90 0
-89 -90 0
-92 -93 0
-92 -94 0
-93 -94 0
-96 -97 0
-96 -98 0
-96 -99 0
-96 -100 0
-97 -98 0
-97 -99 0
-97 -100 0
-98 -99 0
-98 -100 0
-99 -100 0
-101 -102 0
-101 -103 0
-102 -103 0
-106 -107 0
-106 -108 0
-106 -109 0
-106 -110 0
-107 -108 0
-107 -109 0
-107 -110 0
-108 -109 0
-108 -110 0
-109 -110 0
-111 -112 0
-111 -114 0
-111 -115 0
-112 -114 0
-112 -115 0
-114 -115 0
-116 -117 0
-116 -119 0
-116 -120 0
-117 -119 0
-117 -120 0
-119 -120 0
-121 -122 0
-121 -123 0
-121 -124 0
-122 -123 0
-122 -124 0
-123 -124 0
-126 -127 0
-126 -128 0
-126 -129 0
-126 -130 0
-127 -128 0
-127 -129 0
-127 -130 0
-128 -129 0
-128 -130 0
-129 -130 0
-131 -132 0
-131 -133 0
-131 -134 0
-131 -135 0
-132 -133 0
-132 -134 0
-132 -135 0
-133 -134 0
-133 -135 0
-134 -135 0
-136 -137 0
-136 -138 0
-136 -139 0
-136 -140 0
-137 -138 0
-137 -139 0
-137 -140 0
-138 -139 0
-138 -140 0
-139 -140 0
-141 -142 0
-141 -143 0
-141 -144 0
-141 -145 0
-142 -143 0
-142 -144 0
-142 -145 0
-143 -144 0
-143 -145 0
-144 -145 0
-146 -148 0
-146 -149 0
-146 -150 0
-148 -149 0
-148 -150 0
-149 -150 0
-151 -152 0
-151 -153 0
-151 -154 0
-151 -155 0
-152 -153 0
-152 -154 0
-152 -155 0
-153 -154 0
-153 -155 0
-154 -155 0
-156 -157 0
-156 -158 0
-156 -159 0
-156 -160 0
-157 -158 0
-157 -159 0
-157 -160 0
-158 -159 0
-158 -160 0
-159 -160 0
-161 -162 0
-161 -163 0
-161 -165 0
-162 -163 0
-162 -165 0
-163 -165 0
-166 -168 0
-166 -169 0
-166 -170 0
-168 -169 0
-168 -170 0
-169 -170 0
-172 -173 0
-172 -175 0
-173 -175 0
-176 -178 0
-176 -179 0
-176 -180 0
-178 -179 0
-178 -180 0
-179 -180 0
-186 -187 0
-186 -188 0
-186 -189 0
-186 -190 0
-187 -188 0
-187 -189 0
-187 -190 0
-188 -189 0
-188 -190 0
-189 -190 0
-191 -192 0
-191 -193 0
-191 -194 0
-192 -193 0
-192 -194 0
-193 -194 0
